# Node Net
9944   1
6201   1
9501   1
201   2
9992   2
 67   2
501   3
4100   3
4500   3
9959   4
2400   4
1100   4
5600   5
 46   5
 59   5
  7   6
9985   6
2901   6
 81   7
1701   7
8600   7
9983   8
7600   8
 39   8
9978   9
 14   9
 25  10
2301  10
5801  11
2801  11
  2  12
9980  12
6900  13
1301  13
 79  14
 95  14
9982  15
9979  15
600  16
9961  16
